NAME : P-n60-k10.482086.tour
COMMENT : Length = 482086
COMMENT : Found by LKH [Keld Helsgaun] Sun Dec 17 22:37:43 2017
TYPE : TOUR
DIMENSION : 69
TOUR_SECTION
1
5
35
53
28
46
30
63
7
34
2
44
42
43
23
62
13
41
40
10
26
56
68
47
9
20
55
14
58
16
66
52
17
50
25
24
57
69
31
49
48
6
38
21
64
3
29
22
37
60
65
18
4
45
33
51
19
67
27
59
39
11
32
61
8
36
54
15
12
-1
EOF
